words_train/words_559_SAT.qaiger
aag 80 24 0 1 56
2
38
24
32
8
26
30
4
28
14
34
20
6
42
46
36
10
44
22
48
12
18
40
16
160
50 25 15
52 49 47
54 52 45
56 54 43
58 56 41
60 58 39
62 60 37
64 61 36
66 65 63
68 66 51
70 21 11
72 57 40
74 73 59
76 75 70
78 19 9
80 55 42
82 81 57
84 83 78
86 82 79
88 53 44
90 89 55
92 47 4
94 93 2
96 94 48
98 46 5
100 99 53
102 100 97
104 102 6
106 105 91
108 103 7
110 109 107
112 111 87
114 113 85
116 114 77
118 74 71
120 23 13
122 59 38
124 123 61
126 124 121
128 127 119
130 128 117
132 67 50
134 125 120
136 135 133
138 136 131
140 139 69
142 27 17
144 142 35
146 143 34
148 147 145
150 148 63
152 149 62
154 153 151
156 155 140
158 154 141
160 159 157
i0 2 y[0]
i1 2 z[2]
i2 1 x[3]
i3 1 x[7]
i4 2 y[3]
i5 1 x[4]
i6 1 x[6]
i7 2 y[1]
i8 1 x[5]
i9 2 y[6]
i10 2 z[0]
i11 1 x[1]
i12 2 y[2]
i13 2 z[4]
i14 2 z[6]
i15 2 z[1]
i16 2 y[4]
i17 2 z[5]
i18 1 x[2]
i19 2 z[7]
i20 2 y[5]
i21 1 x[0]
i22 2 z[3]
i23 2 y[7]
o0 bv[0]
c
simplified
  <
    or
      xor
        2 y
        1
      << 3
        1 x
    reverse
      2 z
