words_train/words_559_SAT.qaiger.qdimacs
p cnf 80 169
a 9 10 11 12 13 14 15 16 0
e 1 2 3 4 5 6 7 8 17 18 19 20 21 22 23 24 25 26 27 28 29 30 31 32 33 34 35 36 37 38 39 40 41 42 43 44 45 46 47 48 49 50 51 52 53 54 55 56 57 58 59 60 61 62 63 64 65 66 67 68 69 70 71 72 73 74 75 76 77 78 79 80 0
12 7 25 0
-12 -25 0
-7 -25 0
24 23 26 0
-24 -26 0
-23 -26 0
-26 22 27 0
26 -27 0
-22 -27 0
-27 21 28 0
27 -28 0
-21 -28 0
-28 20 29 0
28 -29 0
-20 -29 0
-29 19 30 0
29 -30 0
-19 -30 0
-30 18 31 0
30 -31 0
-18 -31 0
30 -18 32 0
-30 -32 0
18 -32 0
32 31 33 0
-32 -33 0
-31 -33 0
-33 25 34 0
33 -34 0
-25 -34 0
10 5 35 0
-10 -35 0
-5 -35 0
28 -20 36 0
-28 -36 0
20 -36 0
36 29 37 0
-36 -37 0
-29 -37 0
37 -35 38 0
-37 -38 0
35 -38 0
9 4 39 0
-9 -39 0
-4 -39 0
27 -21 40 0
-27 -40 0
21 -40 0
40 28 41 0
-40 -41 0
-28 -41 0
41 -39 42 0
-41 -42 0
39 -42 0
-41 39 43 0
41 -43 0
-39 -43 0
26 -22 44 0
-26 -44 0
22 -44 0
44 27 45 0
-44 -45 0
-27 -45 0
23 -2 46 0
-23 -46 0
2 -46 0
46 -1 47 0
-46 -47 0
1 -47 0
-47 -24 48 0
47 -48 0
24 -48 0
-23 2 49 0
23 -49 0
-2 -49 0
49 26 50 0
-49 -50 0
-26 -50 0
-50 48 51 0
50 -51 0
-48 -51 0
-51 -3 52 0
51 -52 0
3 -52 0
52 45 53 0
-52 -53 0
-45 -53 0
51 3 54 0
-51 -54 0
-3 -54 0
54 53 55 0
-54 -55 0
-53 -55 0
55 43 56 0
-55 -56 0
-43 -56 0
56 42 57 0
-56 -57 0
-42 -57 0
-57 38 58 0
57 -58 0
-38 -58 0
-37 35 59 0
37 -59 0
-35 -59 0
11 6 60 0
-11 -60 0
-6 -60 0
29 -19 61 0
-29 -61 0
19 -61 0
61 30 62 0
-61 -62 0
-30 -62 0
-62 60 63 0
62 -63 0
-60 -63 0
63 59 64 0
-63 -64 0
-59 -64 0
-64 58 65 0
64 -65 0
-58 -65 0
33 -25 66 0
-33 -66 0
25 -66 0
62 -60 67 0
-62 -67 0
60 -67 0
67 66 68 0
-67 -68 0
-66 -68 0
-68 65 69 0
68 -69 0
-65 -69 0
69 34 70 0
-69 -70 0
-34 -70 0
13 8 71 0
-13 -71 0
-8 -71 0
-71 17 72 0
71 -72 0
-17 -72 0
71 -17 73 0
-71 -73 0
17 -73 0
73 72 74 0
-73 -74 0
-72 -74 0
-74 31 75 0
74 -75 0
-31 -75 0
74 -31 76 0
-74 -76 0
31 -76 0
76 75 77 0
-76 -77 0
-75 -77 0
77 -70 78 0
-77 -78 0
70 -78 0
-77 70 79 0
77 -79 0
-70 -79 0
79 78 80 0
-79 -80 0
-78 -80 0
80 0
